data/benchmarks/bayes/90-14-8-q.cnf
p cnf 924 811
c weights 0.629811 0.370189 1 1 1 1 1 1 1 1 1 1 1 1 1 1 1 1 1 1 1 1 1 1 1 1 1 1 1 1 1 1 1 1 1 1 1 1 1 1 1 1 1 1 1 1 1 1 1 1 1 1 1 1 1 1 1 1 1 1 1 1 1 1 1 1 1 1 1 1 1 1 1 1 1 1 1 1 1 1 1 1 1 1 1 1 1 1 1 1 1 1 1 1 1 1 1 1 1 1 1 1 1 1 1 1 1 1 1 1 1 1 1 1 1 1 1 1 1 1 1 1 1 1 1 1 1 1 1 1 1 1 1 1 1 1 1 1 1 1 1 1 1 1 1 1 1 1 1 1 1 1 1 1 1 1 1 1 1 1 1 1 1 1 1 1 1 1 1 1 1 1 1 1 1 1 1 1 1 1 1 1 1 1 1 1 1 1 1 1 1 1 1 1 1 1 1 1 1 1 1 1 1 1 1 1 1 1 1 1 1 1 1 1 1 1 1 1 1 1 1 1 1 1 1 1 1 1 1 1 1 1 1 1 1 1 1 1 1 1 1 1 1 1 1 1 1 1 1 1 1 1 1 1 1 1 1 1 1 1 1 1 1 1 1 1 1 1 1 1 1 1 1 1 1 1 1 1 1 1 1 1 1 1 1 1 1 1 1 1 1 1 1 1 1 1 1 1 1 1 1 1 1 1 1 1 1 1 1 1 1 1 1 1 1 1 1 1 1 1 1 1 1 1 1 1 1 1 1 1 1 1 1 1 1 1 1 1 1 1 1 1 1 1 1 1 1 1 1 1 1 1 1 1 1 1 1 1 1 1 1 1 1 1 1 1 1 1 1 1 1 1 1 1 1 1 1 1 1 1 1 1 1 1 1 1 1 1 1 1 1 1 0.5 0.5 0.5 0.5 0.5 0.5 0.5 0.5 0.5 0.5 0.5 0.5 0.5 0.5 0.5 0.5 0.5 0.5 0.5 0.5 0.5 0.5 0.5 0.5 0.5 0.5 0.5 0.5 0.5 0.5 0.5 0.5 0.5 0.5 0.5 0.5 0.5 0.5 0.5 0.5 0.5 0.5 0.5 0.5 0.5 0.5 0.5 0.5 0.5 0.5 0.5 0.5 0.5 0.5 0.5 0.5 0.562491 0.43750900000000004 0.644027 0.355973 0.207725 0.7922750000000001 0.773494 0.22650599999999999 0.5 0.5 0.5 0.5 0.5 0.5 0.5 0.5 0.5 0.5 0.5 0.5 0.5 0.5 0.5 0.5 0.5 0.5 0.5 0.5 0.5 0.5 0.5 0.5 0.5 0.5 0.5 0.5 0.5 0.5 0.5 0.5 0.5 0.5 0.5 0.5 0.5 0.5 0.5 0.5 0.5 0.5 0.5 0.5 0.5 0.5 0.5 0.5 0.5 0.5 0.5 0.5 0.5 0.5 0.5 0.5 0.5 0.5 0.5 0.5 0.5 0.5 0.5 0.5 0.5 0.5 0.5 0.5 0.5 0.5 0.5 0.5 0.5 0.5 0.5 0.5 0.5 0.5 0.5 0.5 0.5 0.5 0.5 0.5 0.5 0.5 0.5 0.5 0.5 0.5 0.5 0.5 0.5 0.5 0.5 0.5 0.5 0.5 0.5 0.5 0.5 0.5 0.5 0.5 0.5 0.5 0.5 0.5 0.5 0.5 0.5 0.5 0.5 0.5 0.5 0.5 0.5 0.5 0.5 0.5 0.5 0.5 0.5 0.5 0.5 0.5 0.5 0.5 0.5 0.5 0.5 0.5 0.5 0.5 0.5 0.5 0.5 0.5 0.5 0.5 0.5 0.5 0.5 0.5 0.5 0.5 0.5 0.5 0.5 0.5 0.5 0.5 0.5 0.5 0.5 0.5 0.5 0.5 0.5 0.5 0.5 0.5 0.5 0.5 0.657324 0.342676 0.152721 0.847279 0.139697 0.860303 0.457646 0.542354 0.5 0.5 0.5 0.5 0.5 0.5 0.5 0.5 0.5 0.5 0.5 0.5 0.5 0.5 0.5 0.5 0.5 0.5 0.5 0.5 0.5 0.5 0.5 0.5 0.5 0.5 0.5 0.5 0.5 0.5 0.5 0.5 0.5 0.5 0.5 0.5 0.5 0.5 0.5 0.5 0.5 0.5 0.5 0.5 0.5 0.5 0.5 0.5 0.5 0.5 0.5 0.5 0.5 0.5 0.5 0.5 0.5 0.5 0.5 0.5 0.5 0.5 0.5 0.5 0.5 0.5 0.5 0.5 0.5 0.5 0.5 0.5 0.5 0.5 0.5 0.5 0.5 0.5 0.5 0.5 0.5 0.5 0.5 0.5 0.5 0.5 0.5 0.5 0.5 0.5 0.5 0.5 0.5 0.5 0.5 0.5 0.5 0.5 0.5 0.5 0.5 0.5 0.5 0.5 0.5 0.5 0.5 0.5 0.5 0.5 0.5 0.5 0.5 0.5 0.5 0.5 0.5 0.5 0.5 0.5 0.5 0.5 0.5 0.5 0.5 0.5 0.5 0.5 0.5 0.5 0.5 0.5 0.5 0.5 0.5 0.5 0.5 0.5 0.5 0.5 0.5 0.5 0.5 0.5 0.5 0.5 0.5 0.5 0.5 0.5 0.5 0.5 0.5 0.5 0.5 0.5 0.5 0.5 0.5 0.5 0.5 0.5 0.5 0.5 0.5 0.5 0.5 0.5 0.5 0.5 0.5 0.5 0.5 0.5 0.5 0.5 0.011754 0.988246 0.287648 0.712352 0.130072 0.869928 0.419226 0.580774 0.5 0.5 0.5 0.5 0.5 0.5 0.5 0.5 0.5 0.5 0.5 0.5 0.5 0.5 0.5 0.5 0.5 0.5 0.5 0.5 0.5 0.5 0.5 0.5 0.653059 0.34694100000000005 0.222521 0.777479 0.345179 0.654821 0.0495508 0.9504492 0.5 0.5 0.5 0.5 0.5 0.5 0.5 0.5 0.5 0.5 0.5 0.5 0.5 0.5 0.5 0.5 0.5 0.5 0.5 0.5 0.5 0.5 0.5 0.5 0.5 0.5 0.5 0.5 0.5 0.5 0.5 0.5 0.5 0.5 0.5 0.5 0.0360728 0.9639272 0.703559 0.29644099999999995 0.554439 0.445561 0.258594 0.741406 0.5 0.5 0.5 0.5 0.5 0.5 0.5 0.5 0.5 0.5 0.5 0.5 0.5 0.5 0.5 0.5 0.5 0.5 0.5 0.5 0.5 0.5 0.5 0.5 0.5 0.5 0.5 0.5 0.5 0.5 0.5 0.5 0.5 0.5 0.5 0.5 0.5 0.5 0.5 0.5 0.97986 0.020140000000000047 0.979558 0.02044199999999996 0.550757 0.44924299999999995 0.238454 0.7615460000000001 0.5 0.5 0.5 0.5 0.5 0.5 0.5 0.5 0.759433 0.24056699999999998 0.0734901 0.9265099 0.435236 0.564764 0.419248 0.5807519999999999 0.5 0.5 0.5 0.5 0.5 0.5 0.5 0.5 0.5 0.5 0.5 0.5 0.5 0.5 0.5 0.5 0.5 0.5 0.5 0.5 0.5 0.5 0.5 0.5 0.5 0.5 0.5 0.5 0.5 0.5 0.5 0.5 0.5 0.5 0.5 0.5 0.5 0.5 0.5 0.5 0.5 0.5 0.5 0.5 0.5 0.5 0.5 0.5 0.5 0.5 0.5 0.5 0.5 0.5 0.5 0.5 0.5 0.5 0.5 0.5 0.5 0.5 0.5 0.5 0.5 0.5 0.5 0.5 0.384597 0.6154029999999999 0.112981 0.887019 0.630198 0.36980199999999996 0.914649 0.08535099999999995 0.5 0.5 0.5 0.5 0.5 0.5 0.5 0.5 0.5 0.5 0.5 0.5 0.5 0.5 0.5 0.5 0.0206062 0.9793938 0.73815 0.26185 0.74753 0.25246999999999997 0.95444 0.045560000000000045 0.5 0.5 0.5 0.5 0.5 0.5 0.5 0.5 0.341133 0.658867 0.375833 0.624167 0.798967 0.20103300000000002 0.810068 0.189932 0.5 0.5 0.5 0.5 0.5 0.5 0.5 0.5 0.5 0.5 0.5 0.5 0.5 0.5 0.5 0.5 0.5 0.5 0.5 0.5 0.5 0.5 0.5 0.5 0.5 0.5 0.5 0.5 0.5 0.5 0.5 0.5 0.5 0.5 0.5 0.5 0.5 0.5 0.5 0.5 0.5 0.5 0.5 0.5 0.5 0.5 0.5 0.5 0.5 0.5 0.5 0.5 0.274714 0.725286 0.00260382 0.99739618 0.0640666 0.9359334 0.934651 0.06534899999999999 0.5 0.5 0.5 0.5 0.5 0.5 0.5 0.5 0.5 0.5 0.5 0.5 0.5 0.5 0.5 0.5 0.5 0.5 0.5 0.5 0.5 0.5 0.5 0.5 0.5 0.5 0.5 0.5 0.5 0.5 0.5 0.5 0.5 0.5 0.5 0.5 0.5 0.5 0.5 0.5 0.5 0.5 0.5 0.5 0.5 0.5 0.5 0.5 0.5 0.5 0.5 0.5 0.5 0.5 0.5 0.5 0.5 0.5 0.5 0.5 0.5 0.5 0.5 0.5 0.85455 0.14544999999999997 0.876919 0.123081 0.585075 0.414925 0.857113 0.142887 0.5 0.5 0.5 0.5 0.5 0.5 0.5 0.5 0.5 0.5 0.5 0.5 0.5 0.5 0.5 0.5 0.5 0.5 0.5 0.5 0.5 0.5 0.5 0.5 0.5 0.5 0.5 0.5 0.5 0.5 0.5 0.5 0.5 0.5 0.5 0.5 0.5 0.5 0.5 0.5 0.5 0.5 0.5 0.5 0.5 0.5 0.5 0.5 0.5 0.5 0.5 0.5 0.5 0.5 0.5 0.5 0.5 0.5 0.5 0.5 0.5 0.5 0.5 0.5 0.5 0.5 0.5 0.5 0.5 0.5 0.5 0.5 0.5 0.5 0.5 0.5 0.5 0.5 0.5 0.5 0.5 0.5 0.5 0.5 0.5 0.5 0.5 0.5 0.5 0.5 0.5 0.5 0.5 0.5 0.5 0.5 0.5 0.5 0.5 0.5 0.5 0.5 0.5 0.5 0.5 0.5 0.5 0.5 0.5 0.5 0.5 0.5 0.5 0.5 0.5 0.5 0.5 0.5 0.5 0.5 0.5 0.5 0.5 0.5 0.5 0.5 0.5 0.5 0.5 0.5 0.5 0.5 0.5 0.5 0.5 0.5 0.5 0.5 0.5 0.5 0.5 0.5 0.5 0.5 0.113094 0.886906 0.780397 0.219603 0.279886 0.7201139999999999 0.0209526 0.9790474 0.5 0.5 0.5 0.5 0.5 0.5 0.5 0.5 0.5 0.5 0.5 0.5 0.5 0.5 0.5 0.5 0.5 0.5 0.5 0.5 0.5 0.5 0.5 0.5 0.5 0.5 0.5 0.5 0.5 0.5 0.5 0.5 0.0154354 0.9845646 0.863799 0.13620100000000002 0.429228 0.5707720000000001 0.879952 0.12004800000000004 0.5 0.5 0.5 0.5 0.5 0.5 0.5 0.5 0.5 0.5 0.5 0.5 0.5 0.5 0.5 0.5 0.5 0.5 0.5 0.5 0.5 0.5 0.5 0.5 0.5 0.5 0.5 0.5 0.655686 0.344314 0.745892 0.254108 0.82547 0.17452999999999996 0.689032 0.310968 0.5 0.5 0.5 0.5 0.5 0.5 0.5 0.5 0.5 0.5 0.5 0.5 0.5 0.5 0.5 0.5 0.5 0.5 0.5 0.5 0.5 0.5 0.5 0.5 0.5 0.5 0.5 0.5 0.5 0.5 0.5 0.5 0.5 0.5 0.5 0.5 0.5 0.5 0.5 0.5 0.5 0.5 0.5 0.5 0.5 0.5 0.5 0.5 0.5 0.5 0.5 0.5 0.5 0.5 0.5 0.5 0.498714 0.501286 0.000896741 0.999103259 0.350356 0.649644 0.893833 0.10616700000000001 0.5 0.5 0.5 0.5 0.5 0.5 0.5 0.5 0.5 0.5 0.5 0.5 0.5 0.5 0.5 0.5 0.5 0.5 0.5 0.5 0.5 0.5 0.5 0.5 0.5 0.5 0.5 0.5 0.5 0.5 0.5 0.5 0.5 0.5 0.5 0.5 0.5 0.5 0.5 0.5 0.5 0.5 0.5 0.5 0.5 0.5 0.5 0.5 0.5 0.5 0.5 0.5 0.5 0.5 0.5 0.5 0.5 0.5 0.5 0.5 0.5 0.5 0.5 0.5 0.5 0.5 0.5 0.5 0.5 0.5 0.5 0.5 0.5 0.5 0.5 0.5 0.5 0.5 0.5 0.5 0.5 0.5 0.5 0.5 0.5 0.5 0.5 0.5 0.5 0.5 0.5 0.5 0.14771 0.85229 0.107939 0.892061 0.960603 0.039397000000000015 0.691568 0.30843200000000004 0.5 0.5 0.5 0.5 0.5 0.5 0.5 0.5 0.5 0.5 0.5 0.5 0.5 0.5 0.5 0.5 0.5 0.5 0.5 0.5 0.5 0.5 0.5 0.5 0.5 0.5 0.5 0.5 0.5 0.5 0.5 0.5 0.5 0.5 0.5 0.5 0.5 0.5 0.5 0.5 0.605112 0.394888 0.729047 0.270953 0.5 0.5 0.5 0.5 0.5 0.5 0.5 0.5 0.5 0.5 0.5 0.5 0.5 0.5 0.5 0.5 0.5 0.5 0.5 0.5 0.5 0.5 0.5 0.5 0.5 0.5 0.5 0.5 0.5 0.5 0.5 0.5 0.548686 0.451314 0.531464 0.46853599999999995 0.571323 0.428677 0.636725 0.363275 0.5 0.5 0.5 0.5 0.5 0.5 0.5 0.5 0.5 0.5 0.5 0.5 0.5 0.5 0.5 0.5 0.5 0.5 0.5 0.5 0.5 0.5 0.5 0.5 0.5 0.5 0.5 0.5 0.5 0.5 0.5 0.5 0.5 0.5 0.5 0.5 0.5 0.5 0.5 0.5 0.5 0.5 0.5 0.5 0.5 0.5 0.5 0.5 0.5 0.5 0.5 0.5 0.5 0.5 0.5 0.5 0.5 0.5 0.5 0.5 0.5 0.5 0.5 0.5 0.5 0.5 0.5 0.5 0.5 0.5 0.5 0.5 0.5 0.5 0.5 0.5 0.5 0.5 0.5 0.5 0.5 0.5 0.5 0.5 0.5 0.5 0.5 0.5 0.5 0.5 0.5 0.5 0.117632 0.882368 0.346325 0.653675 0.0100176 0.9899824 0.214642 0.785358 0.5 0.5 0.5 0.5 0.5 0.5 0.5 0.5 0.927008 0.07299199999999995 0.24194 0.75806 0.507997 0.49200299999999997 0.508208 0.491792 0.5 0.5 0.5 0.5 0.5 0.5 0.5 0.5 0.5 0.5 0.5 0.5 0.5 0.5 0.5 0.5 0.5 0.5 0.5 0.5 0.5 0.5 0.5 0.5 0.5 0.5 0.5 0.5 0.5 0.5 0.5 0.5 0.5 0.5 0.5 0.5 0.5 0.5 0.5 0.5 0.5 0.5 0.5 0.5 0.5 0.5 0.5 0.5 0.5 0.5 0.5 0.5 0.5 0.5 0.5 0.5
-1 2 0
1 -2 0
-2 -3 0
2 3 0
-3 -4 0
3 4 0
-4 5 0
4 -5 0
-5 6 0
5 -6 0
-6 -7 0
6 7 0
-7 -8 0
7 8 0
-8 -9 0
8 9 0
-9 10 0
9 -10 0
-10 -11 0
10 11 0
-11 -12 0
11 12 0
-12 -13 0
12 13 0
-13 14 0
13 -14 0
-1 15 0
1 -15 0
-15 -2 -225 16 0
-15 -2 225 -16 0
-15 2 -226 16 0
-15 2 226 -16 0
15 -2 -227 16 0
15 -2 227 -16 0
15 2 -228 16 0
15 2 228 -16 0
-16 -3 17 0
-16 3 -17 0
16 -3 -17 0
16 3 17 0
-17 -4 18 0
-17 4 18 0
17 -4 18 0
17 4 -18 0
-18 -5 19 0
-18 5 19 0
18 -5 -19 0
18 5 19 0
-19 -6 -20 0
-19 6 20 0
19 -6 -20 0
19 6 20 0
-20 -7 -21 0
-20 7 -21 0
20 -7 21 0
20 7 -21 0
-21 -8 22 0
-21 8 -22 0
21 -8 -22 0
21 8 22 0
-22 -9 23 0
-22 9 -23 0
22 -9 -23 0
22 9 -23 0
-23 -10 24 0
-23 10 24 0
23 -10 -24 0
23 10 24 0
-24 -11 -25 0
-24 11 -25 0
24 -11 25 0
24 11 25 0
-25 -12 26 0
-25 12 -26 0
25 -12 -26 0
25 12 -26 0
-26 -13 -27 0
-26 13 27 0
26 -13 -27 0
26 13 27 0
-27 -14 -28 0
-27 14 28 0
27 -14 28 0
27 14 28 0
-15 29 0
15 -29 0
-29 -16 -30 0
-29 16 30 0
29 -16 30 0
29 16 30 0
-30 -17 -31 0
-30 17 -31 0
30 -17 -31 0
30 17 31 0
-31 -18 -32 0
-31 18 -32 0
31 -18 32 0
31 18 32 0
-32 -19 33 0
-32 19 33 0
32 -19 -33 0
32 19 -33 0
-33 -20 34 0
-33 20 34 0
33 -20 34 0
33 20 -34 0
-34 -21 -35 0
-34 21 35 0
34 -21 -35 0
34 21 35 0
-35 -22 36 0
-35 22 36 0
35 -22 36 0
35 22 -36 0
-36 -23 37 0
-36 23 37 0
36 -23 -37 0
36 23 37 0
-37 -24 -311 38 0
-37 -24 311 -38 0
-37 24 -312 38 0
-37 24 312 -38 0
37 -24 -313 38 0
37 -24 313 -38 0
37 24 -314 38 0
37 24 314 -38 0
-38 -25 39 0
-38 25 39 0
38 -25 -39 0
38 25 -39 0
-39 -26 40 0
-39 26 40 0
39 -26 -40 0
39 26 -40 0
-40 -27 -41 0
-40 27 41 0
40 -27 -41 0
40 27 41 0
-41 -28 42 0
-41 28 42 0
41 -28 42 0
41 28 -42 0
-29 43 0
29 -43 0
-43 -30 44 0
-43 30 44 0
43 -30 44 0
43 30 -44 0
-44 -31 -45 0
-44 31 -45 0
44 -31 45 0
44 31 -45 0
-45 -32 -46 0
-45 32 -46 0
45 -32 46 0
45 32 46 0
-46 -33 -47 0
-46 33 47 0
46 -33 47 0
46 33 -47 0
-47 -34 48 0
-47 34 -48 0
47 -34 48 0
47 34 48 0
-48 -35 -49 0
-48 35 -49 0
48 -35 49 0
48 35 -49 0
-49 -36 50 0
-49 36 50 0
49 -36 50 0
49 36 -50 0
-50 -37 51 0
-50 37 51 0
50 -37 -51 0
50 37 -51 0
-51 -38 -52 0
-51 38 -52 0
51 -38 52 0
51 38 52 0
-52 -39 -53 0
-52 39 53 0
52 -39 53 0
52 39 -53 0
-53 -40 54 0
-53 40 -54 0
53 -40 54 0
53 40 54 0
-54 -41 -55 0
-54 41 55 0
54 -41 55 0
54 41 -55 0
-55 -42 56 0
-55 42 -56 0
55 -42 56 0
55 42 -56 0
-43 -57 0
43 57 0
-57 -44 -58 0
-57 44 -58 0
57 -44 58 0
57 44 -58 0
-58 -45 -59 0
-58 45 59 0
58 -45 59 0
58 45 -59 0
-59 -46 -60 0
-59 46 -60 0
59 -46 -60 0
59 46 60 0
-60 -47 61 0
-60 47 61 0
60 -47 -61 0
60 47 61 0
-61 -48 -403 62 0
-61 -48 403 -62 0
-61 48 -404 62 0
-61 48 404 -62 0
61 -48 -405 62 0
61 -48 405 -62 0
61 48 -406 62 0
61 48 406 -62 0
-62 -49 63 0
-62 49 -63 0
62 -49 -63 0
62 49 63 0
-63 -50 64 0
-63 50 64 0
63 -50 64 0
63 50 -64 0
-64 -51 65 0
-64 51 -65 0
64 -51 65 0
64 51 -65 0
-65 -52 -419 66 0
-65 -52 419 -66 0
-65 52 -420 66 0
-65 52 420 -66 0
65 -52 -421 66 0
65 -52 421 -66 0
65 52 -422 66 0
65 52 422 -66 0
-66 -53 67 0
-66 53 67 0
66 -53 -67 0
66 53 67 0
-67 -54 68 0
-67 54 68 0
67 -54 68 0
67 54 -68 0
-68 -55 69 0
-68 55 69 0
68 -55 -69 0
68 55 -69 0
-69 -56 -70 0
-69 56 -70 0
69 -56 -70 0
69 56 70 0
-57 71 0
57 -71 0
-71 -58 -441 72 0
-71 -58 441 -72 0
-71 58 -442 72 0
-71 58 442 -72 0
71 -58 -443 72 0
71 -58 443 -72 0
71 58 -444 72 0
71 58 444 -72 0
-72 -59 -73 0
-72 59 73 0
72 -59 -73 0
72 59 73 0
-73 -60 -74 0
-73 60 -74 0
73 -60 -74 0
73 60 74 0
-74 -61 75 0
-74 61 75 0
74 -61 75 0
74 61 -75 0
-75 -62 -76 0
-75 62 76 0
75 -62 -76 0
75 62 -76 0
-76 -63 -77 0
-76 63 77 0
76 -63 -77 0
76 63 -77 0
-77 -64 -465 78 0
-77 -64 465 -78 0
-77 64 -466 78 0
-77 64 466 -78 0
77 -64 -467 78 0
77 -64 467 -78 0
77 64 -468 78 0
77 64 468 -78 0
-78 -65 79 0
-78 65 79 0
78 -65 79 0
78 65 -79 0
-79 -66 -473 80 0
-79 -66 473 -80 0
-79 66 -474 80 0
-79 66 474 -80 0
79 -66 -475 80 0
79 -66 475 -80 0
79 66 -476 80 0
79 66 476 -80 0
-80 -67 -81 0
-80 67 -81 0
80 -67 81 0
80 67 81 0
-81 -68 82 0
-81 68 -82 0
81 -68 -82 0
81 68 82 0
-82 -69 83 0
-82 69 83 0
82 -69 83 0
82 69 -83 0
-83 -70 -84 0
-83 70 -84 0
83 -70 84 0
83 70 -84 0
-71 -85 0
71 85 0
-85 -72 86 0
-85 72 86 0
85 -72 -86 0
85 72 -86 0
-86 -73 87 0
-86 73 87 0
86 -73 87 0
86 73 -87 0
-87 -74 -88 0
-87 74 88 0
87 -74 88 0
87 74 88 0
-88 -75 -89 0
-88 75 -89 0
88 -75 -89 0
88 75 89 0
-89 -76 -511 90 0
-89 -76 511 -90 0
-89 76 -512 90 0
-89 76 512 -90 0
89 -76 -513 90 0
89 -76 513 -90 0
89 76 -514 90 0
89 76 514 -90 0
-90 -77 91 0
-90 77 91 0
90 -77 91 0
90 77 -91 0
-91 -78 -92 0
-91 78 92 0
91 -78 92 0
91 78 92 0
-92 -79 -523 93 0
-92 -79 523 -93 0
-92 79 -524 93 0
-92 79 524 -93 0
92 -79 -525 93 0
92 -79 525 -93 0
92 79 -526 93 0
92 79 526 -93 0
-93 -80 94 0
-93 80 -94 0
93 -80 94 0
93 80 -94 0
-94 -81 -531 95 0
-94 -81 531 -95 0
-94 81 -532 95 0
-94 81 532 -95 0
94 -81 -533 95 0
94 -81 533 -95 0
94 81 -534 95 0
94 81 534 -95 0
-95 -82 -96 0
-95 82 96 0
95 -82 -96 0
95 82 -96 0
-96 -83 97 0
-96 83 -97 0
96 -83 97 0
96 83 -97 0
-97 -84 -98 0
-97 84 98 0
97 -84 98 0
97 84 -98 0
-85 99 0
85 -99 0
-99 -86 -100 0
-99 86 100 0
99 -86 -100 0
99 86 -100 0
-100 -87 -101 0
-100 87 -101 0
100 -87 101 0
100 87 101 0
-101 -88 102 0
-101 88 -102 0
101 -88 -102 0
101 88 102 0
-102 -89 -561 103 0
-102 -89 561 -103 0
-102 89 -562 103 0
-102 89 562 -103 0
102 -89 -563 103 0
102 -89 563 -103 0
102 89 -564 103 0
102 89 564 -103 0
-103 -90 104 0
-103 90 -104 0
103 -90 104 0
103 90 104 0
-104 -91 105 0
-104 91 -105 0
104 -91 105 0
104 91 -105 0
-105 -92 -106 0
-105 92 106 0
105 -92 -106 0
105 92 -106 0
-106 -93 107 0
-106 93 -107 0
106 -93 107 0
106 93 -107 0
-107 -94 108 0
-107 94 -108 0
107 -94 108 0
107 94 108 0
-108 -95 -109 0
-108 95 109 0
108 -95 -109 0
108 95 109 0
-109 -96 110 0
-109 96 110 0
109 -96 -110 0
109 96 -110 0
-110 -97 111 0
-110 97 -111 0
110 -97 111 0
110 97 111 0
-111 -98 -597 112 0
-111 -98 597 -112 0
-111 98 -598 112 0
-111 98 598 -112 0
111 -98 -599 112 0
111 -98 599 -112 0
111 98 -600 112 0
111 98 600 -112 0
-99 113 0
99 -113 0
-113 -100 114 0
-113 100 114 0
113 -100 -114 0
113 100 -114 0
-114 -101 115 0
-114 101 115 0
114 -101 -115 0
114 101 115 0
-115 -102 116 0
-115 102 116 0
115 -102 -116 0
115 102 116 0
-116 -103 -117 0
-116 103 117 0
116 -103 117 0
116 103 -117 0
-117 -104 -118 0
-117 104 -118 0
117 -104 -118 0
117 104 118 0
-118 -105 -119 0
-118 105 119 0
118 -105 -119 0
118 105 -119 0
-119 -106 -120 0
-119 106 120 0
119 -106 120 0
119 106 -120 0
-120 -107 -121 0
-120 107 -121 0
120 -107 -121 0
120 107 121 0
-121 -108 122 0
-121 108 122 0
121 -108 -122 0
121 108 122 0
-122 -109 -123 0
-122 109 -123 0
122 -109 123 0
122 109 -123 0
-123 -110 124 0
-123 110 -124 0
123 -110 124 0
123 110 124 0
-124 -111 125 0
-124 111 -125 0
124 -111 125 0
124 111 -125 0
-125 -112 126 0
-125 112 -126 0
125 -112 126 0
125 112 -126 0
-113 -127 0
113 127 0
-127 -114 -128 0
-127 114 -128 0
127 -114 128 0
127 114 -128 0
-128 -115 -129 0
-128 115 129 0
128 -115 129 0
128 115 -129 0
-129 -116 130 0
-129 116 -130 0
129 -116 -130 0
129 116 -130 0
-130 -117 131 0
-130 117 -131 0
130 -117 131 0
130 117 131 0
-131 -118 -673 132 0
-131 -118 673 -132 0
-131 118 -674 132 0
-131 118 674 -132 0
131 -118 -675 132 0
131 -118 675 -132 0
131 118 -676 132 0
131 118 676 -132 0
-132 -119 133 0
-132 119 -133 0
132 -119 133 0
132 119 133 0
-133 -120 -134 0
-133 120 -134 0
133 -120 134 0
133 120 -134 0
-134 -121 135 0
-134 121 -135 0
134 -121 135 0
134 121 -135 0
-135 -122 -136 0
-135 122 136 0
135 -122 -136 0
135 122 136 0
-136 -123 -693 137 0
-136 -123 693 -137 0
-136 123 -694 137 0
-136 123 694 -137 0
136 -123 -695 137 0
136 -123 695 -137 0
136 123 -696 137 0
136 123 696 -137 0
-137 -124 -138 0
-137 124 -138 0
137 -124 138 0
137 124 -138 0
-138 -125 139 0
-138 125 -139 0
138 -125 139 0
138 125 139 0
-139 -126 140 0
-139 126 140 0
139 -126 -140 0
139 126 140 0
-127 141 0
127 -141 0
-141 -128 -711 142 0
-141 -128 711 -142 0
-141 128 -712 142 0
-141 128 712 -142 0
141 -128 -713 142 0
141 -128 713 -142 0
141 128 -714 142 0
141 128 714 -142 0
-142 -129 143 0
-142 129 143 0
142 -129 -143 0
142 129 143 0
-143 -130 144 0
-143 130 144 0
143 -130 144 0
143 130 -144 0
-144 -131 145 0
-144 131 -145 0
144 -131 145 0
144 131 145 0
-145 -132 -146 0
-145 132 -146 0
145 -132 146 0
145 132 146 0
-146 -133 147 0
-146 133 -147 0
146 -133 -147 0
146 133 147 0
-147 -134 -148 0
-147 134 148 0
147 -134 -148 0
147 134 -148 0
-148 -135 -149 0
-148 135 -149 0
148 -135 -149 0
148 135 149 0
-149 -136 -743 150 0
-149 -136 743 -150 0
-149 136 -744 150 0
-149 136 744 -150 0
149 -136 -745 150 0
149 -136 745 -150 0
149 136 -746 150 0
149 136 746 -150 0
-150 -137 151 0
-150 137 -151 0
150 -137 -151 0
150 137 151 0
-151 -138 -152 0
-151 138 152 0
151 -138 152 0
151 138 152 0
-152 -139 -153 0
-152 139 153 0
152 -139 153 0
152 139 -153 0
-153 -140 154 0
-153 140 -154 0
153 -140 154 0
153 140 154 0
-141 155 0
141 -155 0
-155 -142 156 0
-155 142 156 0
155 -142 -156 0
155 142 156 0
-156 -143 157 0
-156 143 -157 0
156 -143 -157 0
156 143 157 0
-157 -144 -158 0
-157 144 -158 0
157 -144 158 0
157 144 -158 0
-158 -145 -159 0
-158 145 159 0
158 -145 -159 0
158 145 159 0
-159 -146 160 0
-159 146 160 0
159 -146 -160 0
159 146 160 0
-160 -147 161 0
-160 147 -161 0
160 -147 161 0
160 147 -161 0
-161 -148 162 0
-161 148 162 0
161 -148 -162 0
161 148 162 0
-162 -149 -793 163 0
-162 -149 793 -163 0
-162 149 -794 163 0
-162 149 794 -163 0
162 -149 -795 163 0
162 -149 795 -163 0
162 149 -796 163 0
162 149 796 -163 0
-163 -150 -164 0
-163 150 -164 0
163 -150 164 0
163 150 -164 0
-164 -151 -165 0
-164 151 -165 0
164 -151 -165 0
164 151 165 0
-165 -152 166 0
-165 152 -166 0
165 -152 -166 0
165 152 -166 0
-166 -153 167 0
-166 153 -167 0
166 -153 -167 0
166 153 167 0
-167 -154 168 0
-167 154 -168 0
167 -154 168 0
167 154 -168 0
-155 -817 169 0
-155 817 -169 0
155 -818 169 0
155 818 -169 0
-169 -156 170 0
-169 156 170 0
169 -156 170 0
169 156 -170 0
-170 -157 -171 0
-170 157 171 0
170 -157 171 0
170 157 -171 0
-171 -158 -172 0
-171 158 -172 0
171 -158 172 0
171 158 172 0
-172 -159 -173 0
-172 159 173 0
172 -159 -173 0
172 159 -173 0
-173 -160 -835 174 0
-173 -160 835 -174 0
-173 160 -836 174 0
-173 160 836 -174 0
173 -160 -837 174 0
173 -160 837 -174 0
173 160 -838 174 0
173 160 838 -174 0
-174 -161 175 0
-174 161 -175 0
174 -161 -175 0
174 161 -175 0
-175 -162 176 0
-175 162 176 0
175 -162 -176 0
175 162 176 0
-176 -163 177 0
-176 163 -177 0
176 -163 177 0
176 163 177 0
-177 -164 178 0
-177 164 178 0
177 -164 -178 0
177 164 178 0
-178 -165 -179 0
-178 165 179 0
178 -165 179 0
178 165 179 0
-179 -166 -180 0
-179 166 -180 0
179 -166 180 0
179 166 180 0
-180 -167 181 0
-180 167 -181 0
180 -167 181 0
180 167 181 0
-181 -168 182 0
-181 168 -182 0
181 -168 -182 0
181 168 -182 0
-169 183 0
169 -183 0
-183 -170 -184 0
-183 170 184 0
183 -170 -184 0
183 170 184 0
-184 -171 185 0
-184 171 185 0
184 -171 -185 0
184 171 185 0
-185 -172 -186 0
-185 172 186 0
185 -172 -186 0
185 172 -186 0
-186 -173 -885 187 0
-186 -173 885 -187 0
-186 173 -886 187 0
-186 173 886 -187 0
186 -173 -887 187 0
186 -173 887 -187 0
186 173 -888 187 0
186 173 888 -187 0
-187 -174 188 0
-187 174 188 0
187 -174 -188 0
187 174 188 0
-188 -175 -893 189 0
-188 -175 893 -189 0
-188 175 -894 189 0
-188 175 894 -189 0
188 -175 -895 189 0
188 -175 895 -189 0
188 175 -896 189 0
188 175 896 -189 0
-189 -176 -190 0
-189 176 190 0
189 -176 -190 0
189 176 190 0
-190 -177 191 0
-190 177 -191 0
190 -177 -191 0
190 177 -191 0
-191 -178 -192 0
-191 178 192 0
191 -178 -192 0
191 178 192 0
-192 -179 193 0
-192 179 193 0
192 -179 193 0
192 179 -193 0
-193 -180 -194 0
-193 180 -194 0
193 -180 -194 0
193 180 194 0
-194 -181 -195 0
-194 181 -195 0
194 -181 195 0
194 181 -195 0
-195 -182 196 0
-195 182 -196 0
195 -182 196 0
195 182 -196 0
196 0
