data/benchmarks/bayes/90-14-8-q.gr
p tw 924 777
67 68
177 190
99 100
26 39
136 149
187 887
59 73
159 160
8 9
89 562
118 131
40 41
77 90
163 795
100 101
132 133
92 106
192 193
41 42
151 164
73 74
110 123
94 533
33 47
133 134
173 835
125 139
51 64
74 75
128 711
95 534
106 107
149 743
143 156
66 80
174 836
166 167
142 713
15 16
47 48
71 442
76 511
158 172
7 21
107 108
150 744
52 419
99 113
48 49
80 81
40 54
132 146
81 82
111 599
25 38
73 87
173 174
66 475
22 23
16 227
165 179
112 600
14 28
114 115
155 818
132 676
106 120
175 894
55 56
80 476
47 61
147 148
187 886
123 694
139 153
89 561
79 526
163 794
189 895
80 94
172 186
94 532
181 182
173 187
48 403
84 97
15 226
176 189
142 712
24 311
77 466
131 675
158 171
117 130
90 512
160 836
21 22
147 161
58 71
186 885
66 420
113 114
150 163
162 793
132 145
54 55
91 104
111 598
146 147
32 45
165 178
87 88
124 137
179 180
106 119
65 78
88 89
120 121
80 475
157 170
6 19
123 693
180 181
29 30
139 152
61 62
79 525
98 111
169 818
21 35
121 122
189 894
153 154
80 93
2 3
113 127
39 52
62 63
172 185
94 95
131 144
54 68
13 27
93 526
3 4
35 36
146 160
72 85
105 119
95 96
15 225
127 128
164 177
58 443
87 101
187 188
46 60
36 37
77 465
131 674
68 69
179 193
28 42
128 129
160 161
90 511
120 134
160 835
79 93
69 70
101 102
66 419
61 75
161 162
20 34
10 11
153 167
64 467
2 16
102 103
94 108
194 195
53 67
43 44
35 49
48 406
135 136
127 141
38 51
89 514
86 100
76 77
24 314
68 82
27 41
160 174
186 888
169 817
137 694
189 893
101 115
12 25
60 74
162 796
81 533
1 15
13 26
93 525
136 743
105 118
58 442
9 10
79 474
46 59
62 403
131 673
138 151
141 714
38 311
19 32
79 92
72 443
134 135
171 184
2 226
20 33
98 599
65 422
75 76
64 466
112 125
118 675
16 17
53 66
61 406
103 561
173 885
108 109
145 158
37 314
149 793
49 50
89 513
86 99
109 110
178 191
27 40
92 524
50 51
82 83
119 132
42 56
137 693
142 143
23 24
134 148
60 73
81 532
83 84
102 564
115 116
152 165
75 89
175 176
34 48
24 25
93 524
93 106
16 30
116 117
108 122
67 81
79 473
57 58
167 168
89 90
126 139
49 63
159 173
149 150
141 713
8 22
30 31
100 114
90 91
72 442
82 96
2 225
41 55
31 32
141 142
98 598
65 421
23 37
64 465
123 124
118 674
133 147
115 129
78 467
74 88
64 65
174 175
61 405
56 70
166 180
156 157
15 29
5 6
37 313
59 72
107 121
62 406
97 98
167 181
89 103
189 190
48 62
148 149
92 523
92 105
188 896
30 44
140 154
33 46
81 95
136 696
141 155
102 563
125 138
22 36
122 123
95 533
34 47
66 79
174 835
114 128
174 188
71 441
7 20
55 69
150 743
67 80
159 172
8 21
40 53
63 64
100 113
148 162
72 441
4 5
41 54
73 86
65 420
66 474
173 838
133 146
16 226
118 673
181 195
112 599
14 27
128 714
155 817
37 38
78 466
74 87
132 675
122 136
149 746
175 893
61 404
166 179
76 514
47 60
37 312
187 885
107 120
52 422
130 131
167 180
163 793
11 12
48 61
140 153
163 164
94 531
44 45
81 94
136 695
102 562
173 186
22 35
95 532
155 156
114 127
142 711
137 138
174 187
96 97
18 19
55 68
88 102
188 189
147 160
180 194
89 564
170 171
29 43
129 130
121 135
111 112
148 161
111 597
62 76
162 163
66 473
154 168
173 837
144 145
16 225
3 17
181 194
103 104
112 598
95 109
132 674
85 86
149 745
122 135
195 196
155 169
177 178
36 50
71 444
76 513
136 137
80 474
96 110
128 142
118 119
52 421
77 78
79 524
21 34
69 83
169 170
129 143
161 175
151 152
10 24
110 111
54 67
102 116
51 52
162 176
146 159
43 57
143 144
103 117
87 100
135 149
175 896
179 192
28 41
76 90
88 101
136 150
120 133
123 696
168 182
180 193
89 563
77 91
61 74
121 134
169 183
153 166
2 15
25 26
62 75
110 124
94 534
94 107
173 836
154 167
3 16
51 65
35 48
48 405
15 228
95 108
149 744
17 18
143 157
142 714
9 23
24 313
77 468
36 49
68 81
80 473
128 141
90 514
160 173
160 838
79 523
186 887
69 82
66 422
101 114
162 795
161 174
10 23
111 600
102 115
176 177
58 441
135 148
17 31
117 118
76 89
109 123
58 59
123 695
168 181
191 192
50 64
150 151
189 896
142 156
91 92
83 97
183 184
32 33
175 189
165 166
24 38
136 746
124 125
48 404
84 98
15 227
116 130
65 66
89 512
176 190
9 22
24 312
57 71
77 467
131 676
157 158
6 7
117 131
38 314
149 163
139 140
90 513
160 837
186 886
58 72
42 55
90 104
190 191
66 421
39 40
150 164
134 147
162 794
182 196
81 531
172 173
31 45
131 132
91 105
75 88
123 137
93 523
72 73
32 46
16 29
103 564
64 78
173 888
164 165
124 138
108 121
156 170
5 19
149 796
17 30
65 79
49 62
97 111
141 712
109 122
157 171
6 20
50 63
98 112
82 95
137 696
142 155
98 597
39 53
23 36
83 96
131 145
115 128
175 188
24 37
136 745
72 86
56 69
116 129
38 39
164 178
58 444
89 511
79 476
62 405
89 102
38 313
149 162
71 72
188 895
30 43
63 77
90 103
12 13
2 228
4 18
182 195
104 105
31 44
64 468
13 14
123 136
45 46
105 106
37 51
103 563
64 77
173 887
46 47
156 169
78 79
5 18
149 795
38 52
138 139
70 84
97 110
141 711
19 20
130 144
79 80
11 25
92 526
71 85
171 172
20 21
137 695
52 53
163 177
12 26
65 419
44 58
81 534
104 118
128 713
53 54
78 465
174 838
45 59
61 403
145 146
136 744
26 27
137 151
150 746
37 311
86 87
18 32
79 475
62 404
78 92
178 179
27 28
138 152
170 184
38 312
19 33
119 120
188 894
63 76
111 125
72 444
60 61
171 185
2 227
136 694
4 17
98 600
52 66
152 153
102 561
1 2
112 126
118 676
144 158
95 531
93 94
37 50
85 99
103 562
185 186
173 886
145 159
177 191
26 40
187 888
149 794
70 83
186 187
118 132
130 143
163 796
178 192
11 24
92 525
119 133
151 165
163 176
44 57
104 117
112 597
152 166
128 712
132 673
174 837
45 58
93 107
193 194
76 512
71 443
137 150
59 60
96 109
150 745
18 31
52 420
78 91
126 140
170 183
92 93
129 142
188 893
184 185
111 124
33 34
25 39
136 693
125 126
52 65
162 175
66 476
16 228
34 35
144 157
66 67
103 116
78 468
158 159
175 895
7 8
